experiments/cvc4_benchmarks/expl/leon/amortize-queue-goal13.smt2.log
13:42:45 [WARN] Collecting statistics
13:42:45 [WARN]  ex is: zero
13:42:45 [WARN]  ex is: (succ zero)
13:42:45 [WARN]  ex is: (succ (succ zero))
13:42:45 [WARN]  ex is: nil
13:42:45 [WARN]  ex is: (cons autovar_Nat_0 nil)
13:42:45 [WARN]  ex is: (cons autovar_Nat_1 (cons autovar_Nat_0 nil))
13:42:45 [WARN]  ex is: (queue autovar_Lst_0 autovar_Lst_1)
13:42:45 [WARN] Proof mode: false
13:42:45 [WARN]  ex is: zero
13:42:45 [WARN]  ex is: (succ zero)
13:42:45 [WARN]  ex is: (succ (succ zero))
13:42:45 [WARN]  ex is: nil
13:42:45 [WARN]  ex is: (cons autovar_Nat_0 nil)
13:42:45 [WARN]  ex is: (cons autovar_Nat_1 (cons autovar_Nat_0 nil))
13:42:45 [WARN]  ex is: (queue autovar_Lst_0 autovar_Lst_1)
13:42:45 [WARN] Proof mode: false
